500
[50,53,59,60,73,74,78,94,95,99,102,107,110,112,115,118,130,138,144,157,158,162,165,167,174,175,176,180,181,186,187,190,194,196,197,200,202,204,207,208,212,214,217,225,228,232,237,241,242,243,244,246,252,253,255,257,258,259,265,266,267,273,274,280,281,283,287,288,293,303,304,309,318,319,320,324,339,340,347,359,363,366,368,376,380,385,391,397]
[1,1,1,1,1,1,1,1,1,1,1,1,1,1,1,1,1,1,1,1,1,1,1,1,1,1,1,1,1,1,1,2,1,1,1,1,1,1,2,1,2,1,1,2,1,1,1,1,3,2,1,1,2,1,1,1,1,1,1,1,1,1,1,1,1,2,1,1,1,1,1,1,1,2,1,1,2,1,1,1,1,1,2,1,1,1,1,1]
